
  32    4
  10   10   10   10

   0   0   0   0   0  12 2 3 4 5 7 8 9 13 18 19 20 21 
   7  10  10  10  10   3 30 17 6 
   8  10  10  10  10   3 30 29 6 
   2  10  10  10  10   5 29 28 26 15 14 
   1  10  10  10  10   1 6 
   3  10  10  10  10   3 27 12 10 
   4  10  10  10  10   2 30 10 
   9  10  10  10  10   5 30 29 28 23 15 
  10  10  10  10  10   2 29 11 
   9  10  10  10  10   3 26 24 14 
   7  10  10  10  10   4 26 24 22 16 
   3  10  10  10  10   2 26 14 
   1  10  10  10  10   4 31 28 27 22 
   6  10  10  10  10   2 22 16 
   9  10  10  10  10   3 31 27 24 
   5  10  10  10  10   2 25 23 
   5  10  10  10  10   2 29 28 
   8  10  10  10  10   1 30 
   7  10  10  10  10   1 28 
   8  10  10  10  10   1 24 
   3  10  10  10  10   1 22 
   4  10  10  10  10   1 32
   5  10  10  10  10   1 32
   2  10  10  10  10   1 32
   7  10  10  10  10   1 32
   1  10  10  10  10   1 32
   6  10  10  10  10   1 32
   3  10  10  10  10   1 32
   5  10  10  10  10   1 32
  10  10  10  10  10   1 32
   4  10  10  10  10   1 32
   0   0   0   0   0   0 
